
Gurobi 10.0.3 (linux64, gurobi_cl) logging started Thu Nov  9 12:56:38 2023

Set parameter Username
Set parameter TimeLimit to value 3600
Set parameter LogFile to value "RCPSP_1484.log"
Set parameter Threads to value 32
Academic license - for non-commercial use only - expires 2024-10-30
Using license file /home/jrivera6/gurobi-licenses/v1003/compute-0-34/gurobi.lic

Gurobi Optimizer version 10.0.3 build v10.0.3rc0 (linux64)
Copyright (c) 2023, Gurobi Optimization, LLC

Read MPS format model from file RCPSP_1484.mps
Reading time = 0.09 seconds
RCPSP_1484: 75214 rows, 29890 columns, 236988 nonzeros

CPU model: Intel(R) Xeon(R) Gold 6130 CPU @ 2.10GHz, instruction set [SSE2|AVX|AVX2|AVX512]
Thread count: 32 physical cores, 32 logical processors, using up to 32 threads

Optimize a model with 75214 rows, 29890 columns and 236988 nonzeros
Model fingerprint: 0x007aa4d0
Variable types: 122 continuous, 29768 integer (29768 binary)
Coefficient statistics:
  Matrix range     [1e+00, 7e+02]
  Objective range  [1e+00, 1e+00]
  Bounds range     [1e+00, 1e+00]
  RHS range        [1e+00, 7e+02]
Presolve removed 11623 rows and 2001 columns (presolve time = 5s) ...
Presolve removed 11840 rows and 2039 columns
Presolve time: 5.56s
Presolved: 63374 rows, 27851 columns, 208348 nonzeros
Variable types: 121 continuous, 27730 integer (27730 binary)

Deterministic concurrent LP optimizer: primal and dual simplex (primal and dual model)
Showing first log only...

Root relaxation presolved: 63374 rows, 27851 columns, 208348 nonzeros


Root simplex log...

Iteration    Objective       Primal Inf.    Dual Inf.      Time
       0    9.7149769e+01   6.496474e-03   2.732529e+08      8s
    4760    9.7000000e+01   0.000000e+00   0.000000e+00      9s
Concurrent spin time: 2.92s

Solved with primal simplex (primal model)

Root relaxation: objective 9.700000e+01, 4760 iterations, 5.34 seconds (0.48 work units)
Total elapsed time = 16.33s

    Nodes    |    Current Node    |     Objective Bounds      |     Work
 Expl Unexpl |  Obj  Depth IntInf | Incumbent    BestBd   Gap | It/Node Time

H    0     0                      97.0000000   97.00000  0.00%     -   16s
     0     0   97.00000    0    8   97.00000   97.00000  0.00%     -   16s

Explored 1 nodes (8819 simplex iterations) in 16.64 seconds (4.40 work units)
Thread count was 32 (of 32 available processors)

Solution count 1: 97 

Optimal solution found (tolerance 1.00e-04)
Best objective 9.700000000000e+01, best bound 9.700000000000e+01, gap 0.0000%

Wrote result file 'RCPSP_1484.sol'

